\ENCODING=ISO-8859-1
\Problem name: 

Maximize
 obj: 0.99925529309822 x1 + 0.99925529309822 x2 + 0.99925529309822 x3
      + 0.99925529309822 x4 + 0.99925529309822 x5 + 0.99925529309822 x6
      + 0.99925529309822 x7 + 0.99925529309822 x8 + 0.99925529309822 x9
      + 0.99925529309822 x10 + 0.99925529309822 x11 + 0.99925529309822 x12
      + 0.99925529309822 x13 + 0.99925529309822 x14 + 0.99925529309822 x15
      + 0.99925529309822 x16 + 0.99925529309822 x17 + 0.99925529309822 x18
      + 0.99925529309822 x19 + 0.99925529309822 x20 + 0.99925529309822 x21
      + 0.99925529309822 x22 + 0.99925529309822 x23 + 0.99925529309822 x24
      + 0.99925529309822 x25 + 0.99925529309822 x26 + 0.99925529309822 x27
      + 0.99925529309822 x28 + 0.99925529309822 x29 + 0.99925529309822 x30
      + 0.99925529309822 x31 + 0.99925529309822 x32 + 0.99925529309822 x33
      + 0.99925529309822 x34 + 0.99925529309822 x35 + 0.99925529309822 x36
      + 0.99925529309822 x37 + 0.99925529309822 x38 + 0.99925529309822 x39
      + 0.99925529309822 x40 + 0.99925529309822 x41 + 0.99925529309822 x42
      + 0.99925529309822 x43 + 0.99925529309822 x44 + 0.99925529309822 x45
      + 0.99925529309822 x46 + 0.99925529309822 x47 + 0.99925529309822 x48
      + 0.99925529309822 x49 + 0.99925529309822 x50 + 0.99925529309822 x51
      + 0.99925529309822 x52 + 0.99925529309822 x53 + 0.99925529309822 x54
      + 0.99925529309822 x55 + 0.99925529309822 x56 + 0.99925529309822 x57
      + 0.99925529309822 x58 + 0.99925529309822 x59 + 0.99925529309822 x60
      + 0.99925529309822 x61 + 0.99925529309822 x62 + 0.99925529309822 x63
      + 0.99925529309822 x64 + 0.99925529309822 x65 + 0.99925529309822 x66
      + 0.99925529309822 x67 + 0.99925529309822 x68 + 0.99925529309822 x69
      + 0.99925529309822 x70 + 0.99925529309822 x71 + 0.99925529309822 x72
      + 0.99925529309822 x73 + 0.99925529309822 x74 + 0.99925529309822 x75
      + 0.99925529309822 x76 + 0.99925529309822 x77 + 0.99925529309822 x78
      + 0.99925529309822 x79 + 0.99925529309822 x80 + 0.99925529309822 x81
      + 0.99925529309822 x82 + 0.99925529309822 x83 + 0.99925529309822 x84
      + 0.99925529309822 x85 + 0.99925529309822 x86 + 0.99925529309822 x87
      + 0.99925529309822 x88 + 0.99925529309822 x89 + 0.99925529309822 x90
      + 0.99925529309822 x91 + 0.99925529309822 x92 + 0.99925529309822 x93
      + 0.99925529309822 x94 + 0.99925529309822 x95 + 0.99925529309822 x96
      + 0.99925529309822 x97 + 0.99925529309822 x98 + 0.99925529309822 x99
      + 0.99925529309822 x100 + 0.99925529309822 x101 + 0.99925529309822 x102
      + 0.99925529309822 x103 + 0.99925529309822 x104 + 0.99925529309822 x105
      + 0.99925529309822 x106 + 0.99925529309822 x107 + 0.99925529309822 x108
      + 0.99925529309822 x109 + 0.99925529309822 x110 + 0.99925529309822 x111
      + 0.99925529309822 x112 + 0.99925529309822 x113 + 0.99925529309822 x114
      + 0.99925529309822 x115 + 0.99925529309822 x116 + 0.99925529309822 x117
      + 0.99925529309822 x118 + 0.99925529309822 x119 + 0.99925529309822 x120
Subject To
 c1: 42 x1 + 69 x2 + 67 x3 + 57 x4 + 93 x5 + 90 x6 + 38 x7 + 36 x8 + 45 x9
     + 42 x10 + 33 x11 + 79 x12 + 27 x13 + 57 x14 + 44 x15 + 84 x16 + 86 x17
     + 92 x18 + 46 x19 + 38 x20 + 85 x21 + 33 x22 + 82 x23 + 73 x24 + 49 x25
     + 70 x26 + 59 x27 + 23 x28 + 57 x29 + 72 x30 + 74 x31 + 69 x32 + 33 x33
     + 42 x34 + 28 x35 + 46 x36 + 30 x37 + 64 x38 + 29 x39 + 74 x40 + 41 x41
     + 49 x42 + 55 x43 + 98 x44 + 80 x45 + 32 x46 + 25 x47 + 38 x48 + 82 x49
     + 30 x50 + 35 x51 + 39 x52 + 57 x53 + 84 x54 + 62 x55 + 50 x56 + 55 x57
     + 27 x58 + 30 x59 + 36 x60 + 20 x61 + 78 x62 + 47 x63 + 26 x64 + 45 x65
     + 41 x66 + 58 x67 + 98 x68 + 91 x69 + 96 x70 + 73 x71 + 84 x72 + 37 x73
     + 93 x74 + 91 x75 + 43 x76 + 73 x77 + 85 x78 + 81 x79 + 79 x80 + 71 x81
     + 80 x82 + 76 x83 + 83 x84 + 41 x85 + 78 x86 + 70 x87 + 23 x88 + 42 x89
     + 87 x90 + 43 x91 + 84 x92 + 60 x93 + 55 x94 + 49 x95 + 78 x96 + 73 x97
     + 62 x98 + 36 x99 + 44 x100 + 94 x101 + 69 x102 + 32 x103 + 96 x104
     + 70 x105 + 84 x106 + 58 x107 + 78 x108 + 25 x109 + 80 x110 + 58 x111
     + 66 x112 + 83 x113 + 24 x114 + 98 x115 + 60 x116 + 42 x117 + 43 x118
     + 43 x119 + 39 x120 <= 150
Bounds
      x1 >= 0
      x2 >= 0
      x3 >= 0
      x4 >= 0
      x5 >= 0
      x6 >= 0
      x7 >= 0
      x8 >= 0
      x9 >= 0
      x10 >= 0
      x11 >= 0
      x12 >= 0
      x13 >= 0
      x14 >= 0
      x15 >= 0
      x16 >= 0
      x17 >= 0
      x18 >= 0
      x19 >= 0
      x20 >= 0
      x21 >= 0
      x22 >= 0
      x23 >= 0
      x24 >= 0
      x25 >= 0
      x26 >= 0
      x27 >= 0
      x28 >= 0
      x29 >= 0
      x30 >= 0
      x31 >= 0
      x32 >= 0
      x33 >= 0
      x34 >= 0
      x35 >= 0
      x36 >= 0
      x37 >= 0
      x38 >= 0
      x39 >= 0
      x40 >= 0
      x41 >= 0
      x42 >= 0
      x43 >= 0
      x44 >= 0
      x45 >= 0
      x46 >= 0
      x47 >= 0
      x48 >= 0
      x49 >= 0
      x50 >= 0
      x51 >= 0
      x52 >= 0
      x53 >= 0
      x54 >= 0
      x55 >= 0
      x56 >= 0
      x57 >= 0
      x58 >= 0
      x59 >= 0
      x60 >= 0
      x61 >= 0
      x62 >= 0
      x63 >= 0
      x64 >= 0
      x65 >= 0
      x66 >= 0
      x67 >= 0
      x68 >= 0
      x69 >= 0
      x70 >= 0
      x71 >= 0
      x72 >= 0
      x73 >= 0
      x74 >= 0
      x75 >= 0
      x76 >= 0
      x77 >= 0
      x78 >= 0
      x79 >= 0
      x80 >= 0
      x81 >= 0
      x82 >= 0
      x83 >= 0
      x84 >= 0
      x85 >= 0
      x86 >= 0
      x87 >= 0
      x88 >= 0
      x89 >= 0
      x90 >= 0
      x91 >= 0
      x92 >= 0
      x93 >= 0
      x94 >= 0
      x95 >= 0
      x96 >= 0
      x97 >= 0
      x98 >= 0
      x99 >= 0
      x100 >= 0
      x101 >= 0
      x102 >= 0
      x103 >= 0
      x104 >= 0
      x105 >= 0
      x106 >= 0
      x107 >= 0
      x108 >= 0
      x109 >= 0
      x110 >= 0
      x111 >= 0
      x112 >= 0
      x113 >= 0
      x114 >= 0
      x115 >= 0
      x116 >= 0
      x117 >= 0
      x118 >= 0
      x119 >= 0
      x120 >= 0
Generals
 x1  x2  x3  x4  x5  x6  x7  x8  x9  x10  x11  x12  x13  x14  x15  x16  x17 
 x18  x19  x20  x21  x22  x23  x24  x25  x26  x27  x28  x29  x30  x31  x32 
 x33  x34  x35  x36  x37  x38  x39  x40  x41  x42  x43  x44  x45  x46  x47 
 x48  x49  x50  x51  x52  x53  x54  x55  x56  x57  x58  x59  x60  x61  x62 
 x63  x64  x65  x66  x67  x68  x69  x70  x71  x72  x73  x74  x75  x76  x77 
 x78  x79  x80  x81  x82  x83  x84  x85  x86  x87  x88  x89  x90  x91  x92 
 x93  x94  x95  x96  x97  x98  x99  x100  x101  x102  x103  x104  x105  x106 
 x107  x108  x109  x110  x111  x112  x113  x114  x115  x116  x117  x118  x119 
 x120 
End
